HUN,8,6,854
5,64,1,67,4,14,0,42,2,46,3,64
2,89,3,49,0,93,5,89,4,33,1,85
2,44,0,23,1,19,5,40,4,21,3,30
4,96,3,50,1,12,2,30,5,74,0,79
3,65,4,53,5,62,1,39,2,39,0,37
0,30,4,27,1,39,5,55,2,32,3,88
1,42,3,72,2,95,0,29,4,44,5,46
4,63,1,30,3,28,5,24,2,48,0,65
